dates = {'2022-01-20','2022-01-21','2022-01-22','2022-01-23','2022-01-24','2022-01-25','2022-01-26','2022-01-27','2022-01-28','2022-01-29','2022-01-30','2022-01-31','2022-02-01','2022-02-02','2022-02-03','2022-02-04','2022-02-05','2022-02-06','2022-02-07','2022-02-08','2022-02-09','2022-02-10','2022-02-11','2022-02-12','2022-02-13','2022-02-14','2022-02-15','2022-02-16'};

daysOfWeek = [Thursday,Friday,Saturday,Sunday,Monday,Tuesday,Wednesday,Thursday,Friday,Saturday,Sunday,Monday,Tuesday,Wednesday,Thursday,Friday,Saturday,Sunday,Monday,Tuesday,Wednesday,Thursday,Friday,Saturday,Sunday,Monday,Tuesday,Wednesday];

winter = false;

% For this week, how many people will be here.
numPeople = [162,163,162,162,162,167,164,167,164,164,164,158,160,160,155,158,158,158
,154,156,156,156,156,156,156,156,163,163];

% Physical workers need 50 to 100 % more nutrients per day.
numPhysicalWorkers = [56.5,56.5,56.5,56.5,56.5,57.5,57.5,57.5,57.5,57.5,57.5,57.5,54.0,54.0
,54.0,53.0,53.0,53.0,53.0,51.5,51.5,51.5,51.5,51.5,51.5,55.0,50.5,50.5];

% Males need +25% more nutrients per day.
numMen = [136,139,139,136,136,140,140,140,140,137,137,137,132,132,132,132,132,132
,132,128,128,128,128,128,128,132,134,134];

% Num people who do not eat categories. contains = {none, meat, milk, gluten, egg, nut, seed, sugars}
numRefusals = [| 0,2,7,0,0,3,0,9 | 0,2,10,0,0,8,0,9 | 0,1,0,0,8,0,8,0 | 0,1,0,0,8,0,8,0 | 0,1,0,0,8,0,8,0 | 0,0,0,10,9,4,2,7 | 0,0,0,0,0,0,0,5 | 0,4,0,0,3,0,10,0 | 0,7,2,1,0,0,4,0 | 0,7,2,1,0,0,4,0 | 0,7,2,1,0,0,4,0 | 0,3,2,4,0,4,0,1 | 0,13,0,18,0,0,0,2 | 0,13,0,18,0,0,0,2 | 0,0,16,0,0,5,0,1 | 0,2,7,4,0,5,0,6 | 0,2,7,4,0,5,0,6 | 0,2,7,4,0,5,0,6 | 0,0,6,0,3,0,0,0 | 0,0,5,0,0,9,0,0 | 0,0,5,0,0,9,0,0 | 0,0,5,0,0,9,0,0 | 0,0,5,0,0,9,0,0 | 0,0,5,0,0,9,0,0 | 0,0,5,0,0,9,0,0 | 0,0,5,0,0,9,0,0 | 0,0,0,9,6,1,0,0 | 0,0,0,9,6,1,0,0 |];

